17	4	3
21	20	15	12	30	29	17	
0	0	0	0	0	2	4	9	8	2	8	3	2	3	4
1	0	6	0	0	10	9	6	8	2	9	3	9	11	17
9	9	4	9	3	1	3	2	8	2	9	2	5	8
4	4	1	7	9	4	8	8	1	6	9	2	6	12
10	0	0	7	0	1	2	5	4	7	2	1	7
250	2	8	0	4	7	8	5	5	6	6	2	17	17
175	10	4	2	0	3	6	5	8	3	6	2	10	17
50	0	0	0	5	6	4	9	8	1	1	1	16
125	4	10	0	0	6	4	8	3	5	4	1	15
175	0	0	10	0	2	5	5	6	9	2	1	17
200	8	4	0	0	8	5	10	2	9	6	2	14	17
225	0	0	0	2	8	1	1	2	9	4	3	13	14	17
7	0	0	0	2	7	5	7	6	2	7	1	17
3	0	7	0	0	6	8	1	4	1	5	1	17
10	2	0	2	0	7	2	10	2	8	8	1	17
3	0	6	0	0	3	5	2	3	6	1	1	17
0	0	0	0	0	8	3	2	9	5	1	0
